\ENCODING=ISO-8859-1
\Problem name: ilog.cplex

Minimize
 obj1:
Subject To
 c1:   x1 - x2 - x3  = 0
 c2:   x4 - x5 - x6  = 0
 c3:   x4 + x7  = 20
 c4:   x8 - x9 - x10  = 0
 c5:   x11 - x12 - x13  = 0
 c6:   x11 + x14  = 20
 c7:   x15 - x16 - x17  = 0
 c8:   x18 - x19 - x20  = 0
 c9:   x18 + x21  = 20
 c10:  x22 - x23 - x24  = 0
 c11:  x25 - x26 - x27  = 0
 c12:  x25 + x28  = 20
 c13:  x29 - x30 - x31  = 0
 c14:  x32 - x33 - x34  = 0
 c15:  x32 + x35  = 20
 c16:  x36 - x37 - x38  = 0
 c17:  x39 - x40 - x41  = 0
 c18:  x39 + x42  = 20
 c19:  x43 - x44 - x45  = 0
 c20:  x46 - x47 - x48  = 0
 c21:  x46 + x49  = 20
 c22:  x50 - x51 - x52  = 0
 c23:  x53 - x54 - x55  = 0
 c24:  x53 + x56  = 20
 c25:  x57 - x58 - x59  = 0
 c26:  x60 - x61 - x62  = 0
 c27:  x60 + x63  = 20
 c28:  x64 - x65 - x66  = 0
 c29:  x67 - x68 - x69  = 0
 c30:  x67 + x70  = 20
 c31:  x71 - x72 - x73  = 0
 c32:  x74 - x75 - x76  = 0
 c33:  x74 + x77  = 20
 c34:  x78 - x79 - x80  = 0
 c35:  x81 - x82 - x83  = 0
 c36:  x81 + x84  = 20
 c37:  x85 - x86 - x87  = 0
 c38:  x88 - x89 - x90  = 0
 c39:  x88 + x91  = 20
 c40:  x92 - x93 - x94  = 0
 c41:  x95 - x96 - x97  = 0
 c42:  x95 + x98  = 20
 c43:  x99 - x100 - x101  = 0
 c44:  x102 - x103 - x104  = 0
 c45:  x102 + x105  = 20
 c46:  x106 - x107 - x108  = 0
 c47:  x109 - x110 - x111  = 0
 c48:  x109 + x112  = 20
 c49:  x113 - x114 - x115  = 0
 c50:  x116 - x117 - x118  = 0
 c51:  x116 + x119  = 20
 c52:  x120 - x121 - x122  = 0
 c53:  x123 - x124 - x125  = 0
 c54:  x123 + x126  = 20
 c55:  x127 - x128 - x129  = 0
 c56:  x130 - x131 - x132  = 0
 c57:  x130 + x133  = 20
 c58:  x134 - x135 - x136  = 0
 c59:  x137 - x138 - x139  = 0
 c60:  x137 + x140  = 20
 c61:  x141 - x142 - x143  = 0
 c62:  x144 - x145 - x146  = 0
 c63:  x144 + x147  = 20
 c64:  x148 - x149 - x150  = 0
 c65:  x151 - x152 - x153  = 0
 c66:  x151 + x154  = 20
 c67:  x155 - x156 - x157  = 0
 c68:  x158 - x159 - x160  = 0
 c69:  x158 + x161  = 20
 c70:  x162 - x163 - x164  = 0
 c71:  x165 - x166 - x167  = 0
 c72:  x165 + x168  = 20
 c73:  x169 - x170 - x171  = 0
 c74:  x172 - x173 - x174  = 0
 c75:  x172 + x175  = 20
 c76:  x176 - x177 - x178  = 0
 c77:  x179 - x180 - x181  = 0
 c78:  x179 + x182  = 20
 c79:  x183 - x184 - x185  = 0
 c80:  x186 - x187 - x188  = 0
 c81:  x186 + x189  = 20
 c82:  x190 - x191 - x192  = 0
 c83:  x193 - x194 - x195  = 0
 c84:  x193 + x196  = 20
 c85:  x197 - x198 - x199  = 0
 c86:  x200 - x201 - x202  = 0
 c87:  x200 + x203  = 20
 c88:  x204 - x205 - x206  = 0
 c89:  x207 - x208 - x209  = 0
 c90:  x207 + x210  = 20
 c91:  x211 - x212 - x213  = 0
 c92:  x214 - x215 - x216  = 0
 c93:  x214 + x217  = 20
 c94:  x218 - x219 - x220  = 0
 c95:  x221 - x222 - x223  = 0
 c96:  x221 + x224  = 20
 c97:  x225 - x226 - x227  = 0
 c98:  x228 - x229 - x230  = 0
 c99:  x228 + x231  = 20
 c100: x232 - x233 - x234  = 0
 c101: x235 - x236 - x237  = 0
 c102: x235 + x238  = 20
 c103: x239 - x240 - x241  = 0
 c104: x242 - x243 - x244  = 0
 c105: x242 + x245  = 20
 c106: x246 - x247 - x248  = 0
 c107: x249 - x250 - x251  = 0
 c108: x249 + x252  = 20
 c109: x253 - x254 - x255  = 0
 c110: x256 - x257 - x258  = 0
 c111: x256 + x259  = 20
 c112: x260 - x261 - x262  = 0
 c113: x263 - x264 - x265  = 0
 c114: x263 + x266  = 20
 c115: x267 - x268 - x269  = 0
 c116: x270 - x271 - x272  = 0
 c117: x270 + x273  = 20
 c118: x274 - x275 - x276  = 0
 c119: x277 - x278 - x279  = 0
 c120: x277 + x280  = 20
 c121: x281 - x282 - x283  = 0
 c122: x284 - x285 - x286  = 0
 c123: x284 + x287  = 20
 c124: x288 - x289 - x290  = 0
 c125: x291 - x292 - x293  = 0
 c126: x291 + x294  = 20
 c127: x295 - x296 - x297  = 0
 c128: x298 - x299 - x300  = 0
 c129: x298 + x301  = 20
 c130: x302 - x303 - x304  = 0
 c131: x305 - x306 - x307  = 0
 c132: x305 + x308  = 20
 c133: x309 - x310 - x311  = 0
 c134: x312 - x313 - x314  = 0
 c135: x312 + x315  = 20
 c136: x316 - x317 - x318  = 0
 c137: x319 - x320 - x321  = 0
 c138: x319 + x322  = 20
 c139: x323 - x324 - x325  = 0
 c140: x326 - x327 - x328  = 0
 c141: x326 + x329  = 20
 c142: x330 - x331 - x332  = 0
 c143: x333 - x334 - x335  = 0
 c144: x333 + x336  = 20
 c145: x337 - x338 - x339  = 0
 c146: x340 - x341 - x342  = 0
 c147: x340 + x343  = 20
 c148: x344 - x345 - x346  = 0
 c149: x347 - x348 - x349  = 0
 c150: x347 + x350  = 20
 c151: x351 - x352 - x353  = 0
 c152: x354 - x355 - x356  = 0
 c153: x354 + x357  = 20
 c154: x358 - x359 - x360  = 0
 c155: x361 - x362 - x363  = 0
 c156: x361 + x364  = 20
 c157: x365 - x366 - x367  = 0
 c158: x368 - x369 - x370  = 0
 c159: x368 + x371  = 20
 c160: x372 - x373 - x374  = 0
 c161: x375 - x376 - x377  = 0
 c162: x375 + x378  = 20
 c163: x379 - x380 - x381  = 0
 c164: x382 - x383 - x384  = 0
 c165: x382 + x385  = 20
 c166: x386 - x387 - x388  = 0
 c167: x389 - x390 - x391  = 0
 c168: x389 + x392  = 20
 c169: x393 - x394 - x395  = 0
 c170: x396 - x397 - x398  = 0
 c171: x396 + x399  = 20
 c172: x400 - x401 - x402  = 0
 c173: x403 - x404 - x405  = 0
 c174: x403 + x406  = 20
 c175: x407 - x408 - x409  = 0
 c176: x410 - x411 - x412  = 0
 c177: x410 + x413  = 20
 c178: x414 - x415 - x416  = 0
 c179: x417 - x418 - x419  = 0
 c180: x417 + x420  = 20
 c181: x421 - x422 - x423  = 0
 c182: x424 - x425 - x426  = 0
 c183: x424 + x427  = 20
 c184: x428 - x429 - x430  = 0
 c185: x431 - x432 - x433  = 0
 c186: x431 + x434  = 20
 c187: x435 - x436 - x437  = 0
 c188: x438 - x439 - x440  = 0
 c189: x438 + x441  = 20
 c190: x442 - x443 - x444  = 0
 c191: x445 - x446 - x447  = 0
 c192: x445 + x448  = 20
 c193: x449 - x450 - x451  = 0
 c194: x452 - x453 - x454  = 0
 c195: x452 + x455  = 20
 c196: x456 - x457 - x458  = 0
 c197: x459 - x460 - x461  = 0
 c198: x459 + x462  = 20
 c199: x463 - x464 - x465  = 0
 c200: x466 - x467 - x468  = 0
 c201: x466 + x469  = 20
 c202: x470 - x471 - x472  = 0
 c203: x473 - x474 - x475  = 0
 c204: x473 + x476  = 20
 c205: x477 - x478 - x479  = 0
 c206: x480 - x481 - x482  = 0
 c207: x480 + x483  = 20
 c208: x484 - x485 - x486  = 0
 c209: x487 - x488 - x489  = 0
 c210: x487 + x490  = 20
 c211: x491 - x492 - x493  = 0
 c212: x494 - x495 - x496  = 0
 c213: x494 + x497  = 20
 c214: x498 - x499 - x500  = 0
 c215: x501 - x502 - x503  = 0
 c216: x501 + x504  = 20
 c217: x505 - x506 - x507  = 0
 c218: x508 - x509 - x510  = 0
 c219: x508 + x511  = 20
 c220: x512 - x513 - x514  = 0
 c221: x515 - x516 - x517  = 0
 c222: x515 + x518  = 20
 c223: x519 - x520 - x521  = 0
 c224: x522 - x523 - x524  = 0
 c225: x522 + x525  = 20
 c226: x526 - x527 - x528  = 0
 c227: x529 - x530 - x531  = 0
 c228: x529 + x532  = 20
 c229: x533 - x534 - x535  = 0
 c230: x536 - x537 - x538  = 0
 c231: x536 + x539  = 20
 c232: x540 - x541 - x542  = 0
 c233: x543 - x544 - x545  = 0
 c234: x543 + x546  = 20
 c235: x547 - x548 - x549  = 0
 c236: x550 - x551 - x552  = 0
 c237: x550 + x553  = 20
 c238: x554 - x555 - x556  = 0
 c239: x557 - x558 - x559  = 0
 c240: x557 + x560  = 20
 c241: x561 - x562 - x563  = 0
 c242: x564 - x565 - x566  = 0
 c243: x564 + x567  = 20
 c244: x568 - x569 - x570  = 0
 c245: x571 - x572 - x573  = 0
 c246: x571 + x574  = 20
 c247: x575 - x576 - x577  = 0
 c248: x578 - x579 - x580  = 0
 c249: x578 + x581  = 20
 c250: x582 - x583 - x584  = 0
 c251: x585 - x586 - x587  = 0
 c252: x585 + x588  = 20
 c253: x589 - x590 - x591  = 0
 c254: x592 - x593 - x594  = 0
 c255: x592 + x595  = 20
 c256: x596 - x597 - x598  = 0
 c257: x599 - x600 - x601  = 0
 c258: x599 + x602  = 20
 c259: x603 - x604 - x605  = 0
 c260: x606 - x607 - x608  = 0
 c261: x606 + x609  = 20
 c262: x610 - x611 - x612  = 0
 c263: x613 - x614 - x615  = 0
 c264: x613 + x616  = 20
 c265: x617 - x618 - x619  = 0
 c266: x620 - x621 - x622  = 0
 c267: x620 + x623  = 20
 c268: x624 - x625 - x626  = 0
 c269: x627 - x628 - x629  = 0
 c270: x627 + x630  = 20
 c271: x631 - x632 - x633  = 0
 c272: x634 - x635 - x636  = 0
 c273: x634 + x637  = 20
 c274: x638 - x639 - x640  = 0
 c275: x641 - x642 - x643  = 0
 c276: x641 + x644  = 20
 c277: x645 - x646 - x647  = 0
 c278: x648 - x649 - x650  = 0
 c279: x648 + x651  = 20
 c280: x652 - x653 - x654  = 0
 c281: x655 - x656 - x657  = 0
 c282: x655 + x658  = 20
 c283: x659 - x660 - x661  = 0
 c284: x662 - x663 - x664  = 0
 c285: x662 + x665  = 20
 c286: x666 - x667 - x668  = 0
 c287: x669 - x670 - x671  = 0
 c288: x669 + x672  = 20
 c289: - 0.36 x2 + x5  = 0
 c290: - 0.36 x9 + x12  = 0
 c291: - 0.36 x16 + x19  = 0
 c292: - 0.36 x23 + x26  = 0
 c293: - 0.36 x30 + x33  = 0
 c294: - 0.36 x37 + x40  = 0
 c295: - 0.36 x44 + x47  = 0
 c296: - 0.36 x51 + x54  = 0
 c297: - 0.36 x58 + x61  = 0
 c298: - 0.36 x65 + x68  = 0
 c299: - 0.36 x72 + x75  = 0
 c300: - 0.36 x79 + x82  = 0
 c301: - 0.36 x86 + x89  = 0
 c302: - 0.36 x93 + x96  = 0
 c303: - 0.36 x100 + x103  = 0
 c304: - 0.36 x107 + x110  = 0
 c305: - 0.36 x114 + x117  = 0
 c306: - 0.36 x121 + x124  = 0
 c307: - 0.36 x128 + x131  = 0
 c308: - 0.36 x135 + x138  = 0
 c309: - 0.36 x142 + x145  = 0
 c310: - 0.36 x149 + x152  = 0
 c311: - 0.36 x156 + x159  = 0
 c312: - 0.36 x163 + x166  = 0
 c313: - 0.36 x170 + x173  = 0
 c314: - 0.36 x177 + x180  = 0
 c315: - 0.36 x184 + x187  = 0
 c316: - 0.36 x191 + x194  = 0
 c317: - 0.36 x198 + x201  = 0
 c318: - 0.36 x205 + x208  = 0
 c319: - 0.36 x212 + x215  = 0
 c320: - 0.36 x219 + x222  = 0
 c321: - 0.36 x226 + x229  = 0
 c322: - 0.36 x233 + x236  = 0
 c323: - 0.36 x240 + x243  = 0
 c324: - 0.36 x247 + x250  = 0
 c325: - 0.36 x254 + x257  = 0
 c326: - 0.36 x261 + x264  = 0
 c327: - 0.36 x268 + x271  = 0
 c328: - 0.36 x275 + x278  = 0
 c329: - 0.36 x282 + x285  = 0
 c330: - 0.36 x289 + x292  = 0
 c331: - 0.36 x296 + x299  = 0
 c332: - 0.36 x303 + x306  = 0
 c333: - 0.36 x310 + x313  = 0
 c334: - 0.36 x317 + x320  = 0
 c335: - 0.36 x324 + x327  = 0
 c336: - 0.36 x331 + x334  = 0
 c337: - 0.36 x338 + x341  = 0
 c338: - 0.36 x345 + x348  = 0
 c339: - 0.36 x352 + x355  = 0
 c340: - 0.36 x359 + x362  = 0
 c341: - 0.36 x366 + x369  = 0
 c342: - 0.36 x373 + x376  = 0
 c343: - 0.36 x380 + x383  = 0
 c344: - 0.36 x387 + x390  = 0
 c345: - 0.36 x394 + x397  = 0
 c346: - 0.36 x401 + x404  = 0
 c347: - 0.36 x408 + x411  = 0
 c348: - 0.36 x415 + x418  = 0
 c349: - 0.36 x422 + x425  = 0
 c350: - 0.36 x429 + x432  = 0
 c351: - 0.36 x436 + x439  = 0
 c352: - 0.36 x443 + x446  = 0
 c353: - 0.36 x450 + x453  = 0
 c354: - 0.36 x457 + x460  = 0
 c355: - 0.36 x464 + x467  = 0
 c356: - 0.36 x471 + x474  = 0
 c357: - 0.36 x478 + x481  = 0
 c358: - 0.36 x485 + x488  = 0
 c359: - 0.36 x492 + x495  = 0
 c360: - 0.36 x499 + x502  = 0
 c361: - 0.36 x506 + x509  = 0
 c362: - 0.36 x513 + x516  = 0
 c363: - 0.36 x520 + x523  = 0
 c364: - 0.36 x527 + x530  = 0
 c365: - 0.36 x534 + x537  = 0
 c366: - 0.36 x541 + x544  = 0
 c367: - 0.36 x548 + x551  = 0
 c368: - 0.36 x555 + x558  = 0
 c369: - 0.36 x562 + x565  = 0
 c370: - 0.36 x569 + x572  = 0
 c371: - 0.36 x576 + x579  = 0
 c372: - 0.36 x583 + x586  = 0
 c373: - 0.36 x590 + x593  = 0
 c374: - 0.36 x597 + x600  = 0
 c375: - 0.36 x604 + x607  = 0
 c376: - 0.36 x611 + x614  = 0
 c377: - 0.36 x618 + x621  = 0
 c378: - 0.36 x625 + x628  = 0
 c379: - 0.36 x632 + x635  = 0
 c380: - 0.36 x639 + x642  = 0
 c381: - 0.36 x646 + x649  = 0
 c382: - 0.36 x653 + x656  = 0
 c383: - 0.36 x660 + x663  = 0
 c384: - 0.36 x667 + x670  = 0
 c385: x673  = 500
 c386: ? x7 + x674 - 0.25 x675  = -0.25
 c387: ? x14 + x676 - 0.25 x677  = -0.25
 c388: ? x21 + x678 - 0.25 x679  = -0.25
 c389: ? x28 + x680 - 0.25 x681  = -0.25
 c390: ? x35 + x682 - 0.25 x683  = -0.25
 c391: ? x42 + x684 - 0.25 x685  = -0.25
 c392: ? x49 + x686 - 0.25 x687  = -0.25
 c393: ? x56 + x688 - 0.25 x689  = -0.25
 c394: ? x63 + x690 - 0.25 x691  = -0.25
 c395: ? x70 + x692 - 0.25 x693  = -0.25
 c396: ? x77 + x694 - 0.25 x695  = -0.25
 c397: ? x84 + x696 - 0.25 x697  = -0.25
 c398: ? x91 + x698 - 0.25 x699  = -0.25
 c399: ? x98 + x700 - 0.25 x701  = -0.25
 c400: ? x105 + x702 - 0.25 x703  = -0.25
 c401: ? x112 + x704 - 0.25 x705  = -0.25
 c402: ? x119 + x706 - 0.25 x707  = -0.25
 c403: ? x126 + x708 - 0.25 x709  = -0.25
 c404: ? x133 + x710 - 0.25 x711  = -0.25
 c405: ? x140 + x712 - 0.25 x713  = -0.25
 c406: ? x147 + x714 - 0.25 x715  = -0.25
 c407: ? x154 + x716 - 0.25 x717  = -0.25
 c408: ? x161 + x718 - 0.25 x719  = -0.25
 c409: ? x168 + x720 - 0.25 x721  = -0.25
 c410: ? x175 + x722 - 0.25 x723  = -0.25
 c411: ? x182 + x724 - 0.25 x725  = -0.25
 c412: ? x189 + x726 - 0.25 x727  = -0.25
 c413: ? x196 + x728 - 0.25 x729  = -0.25
 c414: ? x203 + x730 - 0.25 x731  = -0.25
 c415: ? x210 + x732 - 0.25 x733  = -0.25
 c416: ? x217 + x734 - 0.25 x735  = -0.25
 c417: ? x224 + x736 - 0.25 x737  = -0.25
 c418: ? x231 + x738 - 0.25 x739  = -0.25
 c419: ? x238 + x740 - 0.25 x741  = -0.25
 c420: ? x245 + x742 - 0.25 x743  = -0.25
 c421: ? x252 + x744 - 0.25 x745  = -0.25
 c422: ? x259 + x746 - 0.25 x747  = -0.25
 c423: ? x266 + x748 - 0.25 x749  = -0.25
 c424: ? x273 + x750 - 0.25 x751  = -0.25
 c425: ? x280 + x752 - 0.25 x753  = -0.25
 c426: ? x287 + x754 - 0.25 x755  = -0.25
 c427: ? x294 + x756 - 0.25 x757  = -0.25
 c428: ? x301 + x758 - 0.25 x759  = -0.25
 c429: ? x308 + x760 - 0.25 x761  = -0.25
 c430: ? x315 + x762 - 0.25 x763  = -0.25
 c431: ? x322 + x764 - 0.25 x765  = -0.25
 c432: ? x329 + x766 - 0.25 x767  = -0.25
 c433: ? x336 + x768 - 0.25 x769  = -0.25
 c434: ? x343 + x770 - 0.25 x771  = -0.25
 c435: ? x350 + x772 - 0.25 x773  = -0.25
 c436: ? x357 + x774 - 0.25 x775  = -0.25
 c437: ? x364 + x776 - 0.25 x777  = -0.25
 c438: ? x371 + x778 - 0.25 x779  = -0.25
 c439: ? x378 + x780 - 0.25 x781  = -0.25
 c440: ? x385 + x782 - 0.25 x783  = -0.25
 c441: ? x392 + x784 - 0.25 x785  = -0.25
 c442: ? x399 + x786 - 0.25 x787  = -0.25
 c443: ? x406 + x788 - 0.25 x789  = -0.25
 c444: ? x413 + x790 - 0.25 x791  = -0.25
 c445: ? x420 + x792 - 0.25 x793  = -0.25
 c446: ? x427 + x794 - 0.25 x795  = -0.25
 c447: ? x434 + x796 - 0.25 x797  = -0.25
 c448: ? x441 + x798 - 0.25 x799  = -0.25
 c449: ? x448 + x800 - 0.25 x801  = -0.25
 c450: ? x455 + x802 - 0.25 x803  = -0.25
 c451: ? x462 + x804 - 0.25 x805  = -0.25
 c452: ? x469 + x806 - 0.25 x807  = -0.25
 c453: ? x476 + x808 - 0.25 x809  = -0.25
 c454: ? x483 + x810 - 0.25 x811  = -0.25
 c455: ? x490 + x812 - 0.25 x813  = -0.25
 c456: ? x497 + x814 - 0.25 x815  = -0.25
 c457: ? x504 + x816 - 0.25 x817  = -0.25
 c458: ? x511 + x818 - 0.25 x819  = -0.25
 c459: ? x518 + x820 - 0.25 x821  = -0.25
 c460: ? x525 + x822 - 0.25 x823  = -0.25
 c461: ? x532 + x824 - 0.25 x825  = -0.25
 c462: ? x539 + x826 - 0.25 x827  = -0.25
 c463: ? x546 + x828 - 0.25 x829  = -0.25
 c464: ? x553 + x830 - 0.25 x831  = -0.25
 c465: ? x560 + x832 - 0.25 x833  = -0.25
 c466: ? x567 + x834 - 0.25 x835  = -0.25
 c467: ? x574 + x836 - 0.25 x837  = -0.25
 c468: ? x581 + x838 - 0.25 x839  = -0.25
 c469: ? x588 + x840 - 0.25 x841  = -0.25
 c470: ? x595 + x842 - 0.25 x843  = -0.25
 c471: ? x602 + x844 - 0.25 x845  = -0.25
 c472: ? x609 + x846 - 0.25 x847  = -0.25
 c473: ? x616 + x848 - 0.25 x849  = -0.25
 c474: ? x623 + x850 - 0.25 x851  = -0.25
 c475: ? x630 + x852 - 0.25 x853  = -0.25
 c476: ? x637 + x854 - 0.25 x855  = -0.25
 c477: ? x644 + x856 - 0.25 x857  = -0.25
 c478: ? x651 + x858 - 0.25 x859  = -0.25
 c479: ? x658 + x860 - 0.25 x861  = -0.25
 c480: ? x665 + x862 - 0.25 x863  = -0.25
 c481: ? x672 + x864 - 0.25 x865  = -0.25
Bounds
 0 <= x1 <= 1000
 0 <= x2 <= 50
 0 <= x3 <= 50
 0 <= x5 <= 50
 0 <= x6 <= 50
 0 <= x7 <= 50
 0 <= x8 <= 1000
 0 <= x9 <= 50
 0 <= x10 <= 50
 0 <= x12 <= 50
 0 <= x13 <= 50
 0 <= x14 <= 50
 0 <= x15 <= 1000
 0 <= x16 <= 50
 0 <= x17 <= 50
 0 <= x19 <= 50
 0 <= x20 <= 50
 0 <= x21 <= 50
 0 <= x22 <= 1000
 0 <= x23 <= 50
 0 <= x24 <= 50
 0 <= x26 <= 50
 0 <= x27 <= 50
 0 <= x28 <= 50
 0 <= x29 <= 1000
 0 <= x30 <= 50
 0 <= x31 <= 50
 0 <= x33 <= 50
 0 <= x34 <= 50
 0 <= x35 <= 50
 0 <= x36 <= 1000
 0 <= x37 <= 50
 0 <= x38 <= 50
 0 <= x40 <= 50
 0 <= x41 <= 50
 0 <= x42 <= 50
 0 <= x43 <= 1000
 0 <= x44 <= 50
 0 <= x45 <= 50
 0 <= x47 <= 50
 0 <= x48 <= 50
 0 <= x49 <= 50
 0 <= x50 <= 1000
 0 <= x51 <= 50
 0 <= x52 <= 50
 0 <= x54 <= 50
 0 <= x55 <= 50
 0 <= x56 <= 50
 0 <= x57 <= 1000
 0 <= x58 <= 50
 0 <= x59 <= 50
 0 <= x61 <= 50
 0 <= x62 <= 50
 0 <= x63 <= 50
 0 <= x64 <= 1000
 0 <= x65 <= 50
 0 <= x66 <= 50
 0 <= x68 <= 50
 0 <= x69 <= 50
 0 <= x70 <= 50
 0 <= x71 <= 1000
 0 <= x72 <= 50
 0 <= x73 <= 50
 0 <= x75 <= 50
 0 <= x76 <= 50
 0 <= x77 <= 50
 0 <= x78 <= 1000
 0 <= x79 <= 50
 0 <= x80 <= 50
 0 <= x82 <= 50
 0 <= x83 <= 50
 0 <= x84 <= 50
 0 <= x85 <= 1000
 0 <= x86 <= 50
 0 <= x87 <= 50
 0 <= x89 <= 50
 0 <= x90 <= 50
 0 <= x91 <= 50
 0 <= x92 <= 1000
 0 <= x93 <= 50
 0 <= x94 <= 50
 0 <= x96 <= 50
 0 <= x97 <= 50
 0 <= x98 <= 50
 0 <= x99 <= 1000
 0 <= x100 <= 50
 0 <= x101 <= 50
 0 <= x103 <= 50
 0 <= x104 <= 50
 0 <= x105 <= 50
 0 <= x106 <= 1000
 0 <= x107 <= 50
 0 <= x108 <= 50
 0 <= x110 <= 50
 0 <= x111 <= 50
 0 <= x112 <= 50
 0 <= x113 <= 1000
 0 <= x114 <= 50
 0 <= x115 <= 50
 0 <= x117 <= 50
 0 <= x118 <= 50
 0 <= x119 <= 50
 0 <= x120 <= 1000
 0 <= x121 <= 50
 0 <= x122 <= 50
 0 <= x124 <= 50
 0 <= x125 <= 50
 0 <= x126 <= 50
 0 <= x127 <= 1000
 0 <= x128 <= 50
 0 <= x129 <= 50
 0 <= x131 <= 50
 0 <= x132 <= 50
 0 <= x133 <= 50
 0 <= x134 <= 1000
 0 <= x135 <= 50
 0 <= x136 <= 50
 0 <= x138 <= 50
 0 <= x139 <= 50
 0 <= x140 <= 50
 0 <= x141 <= 1000
 0 <= x142 <= 50
 0 <= x143 <= 50
 0 <= x145 <= 50
 0 <= x146 <= 50
 0 <= x147 <= 50
 0 <= x148 <= 1000
 0 <= x149 <= 50
 0 <= x150 <= 50
 0 <= x152 <= 50
 0 <= x153 <= 50
 0 <= x154 <= 50
 0 <= x155 <= 1000
 0 <= x156 <= 50
 0 <= x157 <= 50
 0 <= x159 <= 50
 0 <= x160 <= 50
 0 <= x161 <= 50
 0 <= x162 <= 1000
 0 <= x163 <= 50
 0 <= x164 <= 50
 0 <= x166 <= 50
 0 <= x167 <= 50
 0 <= x168 <= 50
 0 <= x169 <= 1000
 0 <= x170 <= 50
 0 <= x171 <= 50
 0 <= x173 <= 50
 0 <= x174 <= 50
 0 <= x175 <= 50
 0 <= x176 <= 1000
 0 <= x177 <= 50
 0 <= x178 <= 50
 0 <= x180 <= 50
 0 <= x181 <= 50
 0 <= x182 <= 50
 0 <= x183 <= 1000
 0 <= x184 <= 50
 0 <= x185 <= 50
 0 <= x187 <= 50
 0 <= x188 <= 50
 0 <= x189 <= 50
 0 <= x190 <= 1000
 0 <= x191 <= 50
 0 <= x192 <= 50
 0 <= x194 <= 50
 0 <= x195 <= 50
 0 <= x196 <= 50
 0 <= x197 <= 1000
 0 <= x198 <= 50
 0 <= x199 <= 50
 0 <= x201 <= 50
 0 <= x202 <= 50
 0 <= x203 <= 50
 0 <= x204 <= 1000
 0 <= x205 <= 50
 0 <= x206 <= 50
 0 <= x208 <= 50
 0 <= x209 <= 50
 0 <= x210 <= 50
 0 <= x211 <= 1000
 0 <= x212 <= 50
 0 <= x213 <= 50
 0 <= x215 <= 50
 0 <= x216 <= 50
 0 <= x217 <= 50
 0 <= x218 <= 1000
 0 <= x219 <= 50
 0 <= x220 <= 50
 0 <= x222 <= 50
 0 <= x223 <= 50
 0 <= x224 <= 50
 0 <= x225 <= 1000
 0 <= x226 <= 50
 0 <= x227 <= 50
 0 <= x229 <= 50
 0 <= x230 <= 50
 0 <= x231 <= 50
 0 <= x232 <= 1000
 0 <= x233 <= 50
 0 <= x234 <= 50
 0 <= x236 <= 50
 0 <= x237 <= 50
 0 <= x238 <= 50
 0 <= x239 <= 1000
 0 <= x240 <= 50
 0 <= x241 <= 50
 0 <= x243 <= 50
 0 <= x244 <= 50
 0 <= x245 <= 50
 0 <= x246 <= 1000
 0 <= x247 <= 50
 0 <= x248 <= 50
 0 <= x250 <= 50
 0 <= x251 <= 50
 0 <= x252 <= 50
 0 <= x253 <= 1000
 0 <= x254 <= 50
 0 <= x255 <= 50
 0 <= x257 <= 50
 0 <= x258 <= 50
 0 <= x259 <= 50
 0 <= x260 <= 1000
 0 <= x261 <= 50
 0 <= x262 <= 50
 0 <= x264 <= 50
 0 <= x265 <= 50
 0 <= x266 <= 50
 0 <= x267 <= 1000
 0 <= x268 <= 50
 0 <= x269 <= 50
 0 <= x271 <= 50
 0 <= x272 <= 50
 0 <= x273 <= 50
 0 <= x274 <= 1000
 0 <= x275 <= 50
 0 <= x276 <= 50
 0 <= x278 <= 50
 0 <= x279 <= 50
 0 <= x280 <= 50
 0 <= x281 <= 1000
 0 <= x282 <= 50
 0 <= x283 <= 50
 0 <= x285 <= 50
 0 <= x286 <= 50
 0 <= x287 <= 50
 0 <= x288 <= 1000
 0 <= x289 <= 50
 0 <= x290 <= 50
 0 <= x292 <= 50
 0 <= x293 <= 50
 0 <= x294 <= 50
 0 <= x295 <= 1000
 0 <= x296 <= 50
 0 <= x297 <= 50
 0 <= x299 <= 50
 0 <= x300 <= 50
 0 <= x301 <= 50
 0 <= x302 <= 1000
 0 <= x303 <= 50
 0 <= x304 <= 50
 0 <= x306 <= 50
 0 <= x307 <= 50
 0 <= x308 <= 50
 0 <= x309 <= 1000
 0 <= x310 <= 50
 0 <= x311 <= 50
 0 <= x313 <= 50
 0 <= x314 <= 50
 0 <= x315 <= 50
 0 <= x316 <= 1000
 0 <= x317 <= 50
 0 <= x318 <= 50
 0 <= x320 <= 50
 0 <= x321 <= 50
 0 <= x322 <= 50
 0 <= x323 <= 1000
 0 <= x324 <= 50
 0 <= x325 <= 50
 0 <= x327 <= 50
 0 <= x328 <= 50
 0 <= x329 <= 50
 0 <= x330 <= 1000
 0 <= x331 <= 50
 0 <= x332 <= 50
 0 <= x334 <= 50
 0 <= x335 <= 50
 0 <= x336 <= 50
 0 <= x337 <= 1000
 0 <= x338 <= 50
 0 <= x339 <= 50
 0 <= x341 <= 50
 0 <= x342 <= 50
 0 <= x343 <= 50
 0 <= x344 <= 1000
 0 <= x345 <= 50
 0 <= x346 <= 50
 0 <= x348 <= 50
 0 <= x349 <= 50
 0 <= x350 <= 50
 0 <= x351 <= 1000
 0 <= x352 <= 50
 0 <= x353 <= 50
 0 <= x355 <= 50
 0 <= x356 <= 50
 0 <= x357 <= 50
 0 <= x358 <= 1000
 0 <= x359 <= 50
 0 <= x360 <= 50
 0 <= x362 <= 50
 0 <= x363 <= 50
 0 <= x364 <= 50
 0 <= x365 <= 1000
 0 <= x366 <= 50
 0 <= x367 <= 50
 0 <= x369 <= 50
 0 <= x370 <= 50
 0 <= x371 <= 50
 0 <= x372 <= 1000
 0 <= x373 <= 50
 0 <= x374 <= 50
 0 <= x376 <= 50
 0 <= x377 <= 50
 0 <= x378 <= 50
 0 <= x379 <= 1000
 0 <= x380 <= 50
 0 <= x381 <= 50
 0 <= x383 <= 50
 0 <= x384 <= 50
 0 <= x385 <= 50
 0 <= x386 <= 1000
 0 <= x387 <= 50
 0 <= x388 <= 50
 0 <= x390 <= 50
 0 <= x391 <= 50
 0 <= x392 <= 50
 0 <= x393 <= 1000
 0 <= x394 <= 50
 0 <= x395 <= 50
 0 <= x397 <= 50
 0 <= x398 <= 50
 0 <= x399 <= 50
 0 <= x400 <= 1000
 0 <= x401 <= 50
 0 <= x402 <= 50
 0 <= x404 <= 50
 0 <= x405 <= 50
 0 <= x406 <= 50
 0 <= x407 <= 1000
 0 <= x408 <= 50
 0 <= x409 <= 50
 0 <= x411 <= 50
 0 <= x412 <= 50
 0 <= x413 <= 50
 0 <= x414 <= 1000
 0 <= x415 <= 50
 0 <= x416 <= 50
 0 <= x418 <= 50
 0 <= x419 <= 50
 0 <= x420 <= 50
 0 <= x421 <= 1000
 0 <= x422 <= 50
 0 <= x423 <= 50
 0 <= x425 <= 50
 0 <= x426 <= 50
 0 <= x427 <= 50
 0 <= x428 <= 1000
 0 <= x429 <= 50
 0 <= x430 <= 50
 0 <= x432 <= 50
 0 <= x433 <= 50
 0 <= x434 <= 50
 0 <= x435 <= 1000
 0 <= x436 <= 50
 0 <= x437 <= 50
 0 <= x439 <= 50
 0 <= x440 <= 50
 0 <= x441 <= 50
 0 <= x442 <= 1000
 0 <= x443 <= 50
 0 <= x444 <= 50
 0 <= x446 <= 50
 0 <= x447 <= 50
 0 <= x448 <= 50
 0 <= x449 <= 1000
 0 <= x450 <= 50
 0 <= x451 <= 50
 0 <= x453 <= 50
 0 <= x454 <= 50
 0 <= x455 <= 50
 0 <= x456 <= 1000
 0 <= x457 <= 50
 0 <= x458 <= 50
 0 <= x460 <= 50
 0 <= x461 <= 50
 0 <= x462 <= 50
 0 <= x463 <= 1000
 0 <= x464 <= 50
 0 <= x465 <= 50
 0 <= x467 <= 50
 0 <= x468 <= 50
 0 <= x469 <= 50
 0 <= x470 <= 1000
 0 <= x471 <= 50
 0 <= x472 <= 50
 0 <= x474 <= 50
 0 <= x475 <= 50
 0 <= x476 <= 50
 0 <= x477 <= 1000
 0 <= x478 <= 50
 0 <= x479 <= 50
 0 <= x481 <= 50
 0 <= x482 <= 50
 0 <= x483 <= 50
 0 <= x484 <= 1000
 0 <= x485 <= 50
 0 <= x486 <= 50
 0 <= x488 <= 50
 0 <= x489 <= 50
 0 <= x490 <= 50
 0 <= x491 <= 1000
 0 <= x492 <= 50
 0 <= x493 <= 50
 0 <= x495 <= 50
 0 <= x496 <= 50
 0 <= x497 <= 50
 0 <= x498 <= 1000
 0 <= x499 <= 50
 0 <= x500 <= 50
 0 <= x502 <= 50
 0 <= x503 <= 50
 0 <= x504 <= 50
 0 <= x505 <= 1000
 0 <= x506 <= 50
 0 <= x507 <= 50
 0 <= x509 <= 50
 0 <= x510 <= 50
 0 <= x511 <= 50
 0 <= x512 <= 1000
 0 <= x513 <= 50
 0 <= x514 <= 50
 0 <= x516 <= 50
 0 <= x517 <= 50
 0 <= x518 <= 50
 0 <= x519 <= 1000
 0 <= x520 <= 50
 0 <= x521 <= 50
 0 <= x523 <= 50
 0 <= x524 <= 50
 0 <= x525 <= 50
 0 <= x526 <= 1000
 0 <= x527 <= 50
 0 <= x528 <= 50
 0 <= x530 <= 50
 0 <= x531 <= 50
 0 <= x532 <= 50
 0 <= x533 <= 1000
 0 <= x534 <= 50
 0 <= x535 <= 50
 0 <= x537 <= 50
 0 <= x538 <= 50
 0 <= x539 <= 50
 0 <= x540 <= 1000
 0 <= x541 <= 50
 0 <= x542 <= 50
 0 <= x544 <= 50
 0 <= x545 <= 50
 0 <= x546 <= 50
 0 <= x547 <= 1000
 0 <= x548 <= 50
 0 <= x549 <= 50
 0 <= x551 <= 50
 0 <= x552 <= 50
 0 <= x553 <= 50
 0 <= x554 <= 1000
 0 <= x555 <= 50
 0 <= x556 <= 50
 0 <= x558 <= 50
 0 <= x559 <= 50
 0 <= x560 <= 50
 0 <= x561 <= 1000
 0 <= x562 <= 50
 0 <= x563 <= 50
 0 <= x565 <= 50
 0 <= x566 <= 50
 0 <= x567 <= 50
 0 <= x568 <= 1000
 0 <= x569 <= 50
 0 <= x570 <= 50
 0 <= x572 <= 50
 0 <= x573 <= 50
 0 <= x574 <= 50
 0 <= x575 <= 1000
 0 <= x576 <= 50
 0 <= x577 <= 50
 0 <= x579 <= 50
 0 <= x580 <= 50
 0 <= x581 <= 50
 0 <= x582 <= 1000
 0 <= x583 <= 50
 0 <= x584 <= 50
 0 <= x586 <= 50
 0 <= x587 <= 50
 0 <= x588 <= 50
 0 <= x589 <= 1000
 0 <= x590 <= 50
 0 <= x591 <= 50
 0 <= x593 <= 50
 0 <= x594 <= 50
 0 <= x595 <= 50
 0 <= x596 <= 1000
 0 <= x597 <= 50
 0 <= x598 <= 50
 0 <= x600 <= 50
 0 <= x601 <= 50
 0 <= x602 <= 50
 0 <= x603 <= 1000
 0 <= x604 <= 50
 0 <= x605 <= 50
 0 <= x607 <= 50
 0 <= x608 <= 50
 0 <= x609 <= 50
 0 <= x610 <= 1000
 0 <= x611 <= 50
 0 <= x612 <= 50
 0 <= x614 <= 50
 0 <= x615 <= 50
 0 <= x616 <= 50
 0 <= x617 <= 1000
 0 <= x618 <= 50
 0 <= x619 <= 50
 0 <= x621 <= 50
 0 <= x622 <= 50
 0 <= x623 <= 50
 0 <= x624 <= 1000
 0 <= x625 <= 50
 0 <= x626 <= 50
 0 <= x628 <= 50
 0 <= x629 <= 50
 0 <= x630 <= 50
 0 <= x631 <= 1000
 0 <= x632 <= 50
 0 <= x633 <= 50
 0 <= x635 <= 50
 0 <= x636 <= 50
 0 <= x637 <= 50
 0 <= x638 <= 1000
 0 <= x639 <= 50
 0 <= x640 <= 50
 0 <= x642 <= 50
 0 <= x643 <= 50
 0 <= x644 <= 50
 0 <= x645 <= 1000
 0 <= x646 <= 50
 0 <= x647 <= 50
 0 <= x649 <= 50
 0 <= x650 <= 50
 0 <= x651 <= 50
 0 <= x652 <= 1000
 0 <= x653 <= 50
 0 <= x654 <= 50
 0 <= x656 <= 50
 0 <= x657 <= 50
 0 <= x658 <= 50
 0 <= x659 <= 1000
 0 <= x660 <= 50
 0 <= x661 <= 50
 0 <= x663 <= 50
 0 <= x664 <= 50
 0 <= x665 <= 50
 0 <= x666 <= 1000
 0 <= x667 <= 50
 0 <= x668 <= 50
 0 <= x670 <= 50
 0 <= x671 <= 50
 0 <= x672 <= 50
 0 <= x673 <= 2000
 0 <= x674 <= 2000
 0 <= x675 <= 50
 0 <= x676 <= 2000
 0 <= x677 <= 50
 0 <= x678 <= 2000
 0 <= x679 <= 50
 0 <= x680 <= 2000
 0 <= x681 <= 50
 0 <= x682 <= 2000
 0 <= x683 <= 50
 0 <= x684 <= 2000
 0 <= x685 <= 50
 0 <= x686 <= 2000
 0 <= x687 <= 50
 0 <= x688 <= 2000
 0 <= x689 <= 50
 0 <= x690 <= 2000
 0 <= x691 <= 50
 0 <= x692 <= 2000
 0 <= x693 <= 50
 0 <= x694 <= 2000
 0 <= x695 <= 50
 0 <= x696 <= 2000
 0 <= x697 <= 50
 0 <= x698 <= 2000
 0 <= x699 <= 50
 0 <= x700 <= 2000
 0 <= x701 <= 50
 0 <= x702 <= 2000
 0 <= x703 <= 50
 0 <= x704 <= 2000
 0 <= x705 <= 50
 0 <= x706 <= 2000
 0 <= x707 <= 50
 0 <= x708 <= 2000
 0 <= x709 <= 50
 0 <= x710 <= 2000
 0 <= x711 <= 50
 0 <= x712 <= 2000
 0 <= x713 <= 50
 0 <= x714 <= 2000
 0 <= x715 <= 50
 0 <= x716 <= 2000
 0 <= x717 <= 50
 0 <= x718 <= 2000
 0 <= x719 <= 50
 0 <= x720 <= 2000
 0 <= x721 <= 50
 0 <= x722 <= 2000
 0 <= x723 <= 50
 0 <= x724 <= 2000
 0 <= x725 <= 50
 0 <= x726 <= 2000
 0 <= x727 <= 50
 0 <= x728 <= 2000
 0 <= x729 <= 50
 0 <= x730 <= 2000
 0 <= x731 <= 50
 0 <= x732 <= 2000
 0 <= x733 <= 50
 0 <= x734 <= 2000
 0 <= x735 <= 50
 0 <= x736 <= 2000
 0 <= x737 <= 50
 0 <= x738 <= 2000
 0 <= x739 <= 50
 0 <= x740 <= 2000
 0 <= x741 <= 50
 0 <= x742 <= 2000
 0 <= x743 <= 50
 0 <= x744 <= 2000
 0 <= x745 <= 50
 0 <= x746 <= 2000
 0 <= x747 <= 50
 0 <= x748 <= 2000
 0 <= x749 <= 50
 0 <= x750 <= 2000
 0 <= x751 <= 50
 0 <= x752 <= 2000
 0 <= x753 <= 50
 0 <= x754 <= 2000
 0 <= x755 <= 50
 0 <= x756 <= 2000
 0 <= x757 <= 50
 0 <= x758 <= 2000
 0 <= x759 <= 50
 0 <= x760 <= 2000
 0 <= x761 <= 50
 0 <= x762 <= 2000
 0 <= x763 <= 50
 0 <= x764 <= 2000
 0 <= x765 <= 50
 0 <= x766 <= 2000
 0 <= x767 <= 50
 0 <= x768 <= 2000
 0 <= x769 <= 50
 0 <= x770 <= 2000
 0 <= x771 <= 50
 0 <= x772 <= 2000
 0 <= x773 <= 50
 0 <= x774 <= 2000
 0 <= x775 <= 50
 0 <= x776 <= 2000
 0 <= x777 <= 50
 0 <= x778 <= 2000
 0 <= x779 <= 50
 0 <= x780 <= 2000
 0 <= x781 <= 50
 0 <= x782 <= 2000
 0 <= x783 <= 50
 0 <= x784 <= 2000
 0 <= x785 <= 50
 0 <= x786 <= 2000
 0 <= x787 <= 50
 0 <= x788 <= 2000
 0 <= x789 <= 50
 0 <= x790 <= 2000
 0 <= x791 <= 50
 0 <= x792 <= 2000
 0 <= x793 <= 50
 0 <= x794 <= 2000
 0 <= x795 <= 50
 0 <= x796 <= 2000
 0 <= x797 <= 50
 0 <= x798 <= 2000
 0 <= x799 <= 50
 0 <= x800 <= 2000
 0 <= x801 <= 50
 0 <= x802 <= 2000
 0 <= x803 <= 50
 0 <= x804 <= 2000
 0 <= x805 <= 50
 0 <= x806 <= 2000
 0 <= x807 <= 50
 0 <= x808 <= 2000
 0 <= x809 <= 50
 0 <= x810 <= 2000
 0 <= x811 <= 50
 0 <= x812 <= 2000
 0 <= x813 <= 50
 0 <= x814 <= 2000
 0 <= x815 <= 50
 0 <= x816 <= 2000
 0 <= x817 <= 50
 0 <= x818 <= 2000
 0 <= x819 <= 50
 0 <= x820 <= 2000
 0 <= x821 <= 50
 0 <= x822 <= 2000
 0 <= x823 <= 50
 0 <= x824 <= 2000
 0 <= x825 <= 50
 0 <= x826 <= 2000
 0 <= x827 <= 50
 0 <= x828 <= 2000
 0 <= x829 <= 50
 0 <= x830 <= 2000
 0 <= x831 <= 50
 0 <= x832 <= 2000
 0 <= x833 <= 50
 0 <= x834 <= 2000
 0 <= x835 <= 50
 0 <= x836 <= 2000
 0 <= x837 <= 50
 0 <= x838 <= 2000
 0 <= x839 <= 50
 0 <= x840 <= 2000
 0 <= x841 <= 50
 0 <= x842 <= 2000
 0 <= x843 <= 50
 0 <= x844 <= 2000
 0 <= x845 <= 50
 0 <= x846 <= 2000
 0 <= x847 <= 50
 0 <= x848 <= 2000
 0 <= x849 <= 50
 0 <= x850 <= 2000
 0 <= x851 <= 50
 0 <= x852 <= 2000
 0 <= x853 <= 50
 0 <= x854 <= 2000
 0 <= x855 <= 50
 0 <= x856 <= 2000
 0 <= x857 <= 50
 0 <= x858 <= 2000
 0 <= x859 <= 50
 0 <= x860 <= 2000
 0 <= x861 <= 50
 0 <= x862 <= 2000
 0 <= x863 <= 50
 0 <= x864 <= 2000
 0 <= x865 <= 50
End
